nNurses = 70;
nHours = 33;
minHours = 10;
maxHours = 15;
maxConsec = 14;
maxPresence = 11;
demand = [32, 30, 32, 30, 25, 28, 32, 32, 31, 31, 32, 30, 31, 30, 32, 30, 29, 28, 25, 30, 27, 31, 32, 30, 29, 31, 30, 26, 26, 28, 28, 25, 26];
